# swi2ex5
# MODFLOW-SWI Example problem documented in: 
#   Bakker, M., Schaars, F., Hughes, J.D., Langevin, C.D., Dausman, A.M., 2013, Documentation of the seawater intrusion (SWI2) package for MODFLOW: U.S. Geological Survey Techniques and Methods 6-A46, 47 p.
# 
# Input modified for MODFLOW-OWHM by adding a BAS OPTIONS BLOCK with output options.
#
#-----------------------------------------------------------------------------------------------------------------------------------------------------

# Basic package
BEGIN OPTIONS
   NOCBC
   BUDGETDB                ./output/swi2ex5_VolumetricBudget.txt  
   PRINT_HEAD   NPER       ./output/swi2ex5_Head.txt
   CUMULATIVE_HEAD_CHANGE  ./output/swi2ex5_CumHCHG.txt  
END OPTIONS
        13         1              (5I4)         -1 # IBOUND Array for Layer 1
   1   1   1   1   1
   1   1   1   1   1
   1   1   1   1   1
   1   1   1   1   1
   1   1   1   1   1
   1   1   1   1   1
   1   1   1   1   1
   1   1   1   1   1
   1   1   1   1   1
   1   1   1   1   1
   1   1   1   1   1
   1   1   1   1   1
   1   1   1   1   1
   1   1   1   1   1
   1   1   1   1   1
   1   1   1   1   1
   1   1   1   1   1
   1   1   1   1   1
   1   1   1   1   1
   1   1   1   1   1
   1   1   1   1   1
   1   1   1   1   1
   1   1   1
        13         1              (5I4)         -1 # IBOUND Array for Layer 2
   1   1   1   1   1
   1   1   1   1   1
   1   1   1   1   1
   1   1   1   1   1
   1   1   1   1   1
   1   1   1   1   1
   1   1   1   1   1
   1   1   1   1   1
   1   1   1   1   1
   1   1   1   1   1
   1   1   1   1   1
   1   1   1   1   1
   1   1   1   1   1
   1   1   1   1   1
   1   1   1   1   1
   1   1   1   1   1
   1   1   1   1   1
   1   1   1   1   1
   1   1   1   1   1
   1   1   1   1   1
   1   1   1   1   1
   1   1   1   1   1
   1   1   1
        13         1              (5I4)         -1 # IBOUND Array for Layer 3
   1   1   1   1   1
   1   1   1   1   1
   1   1   1   1   1
   1   1   1   1   1
   1   1   1   1   1
   1   1   1   1   1
   1   1   1   1   1
   1   1   1   1   1
   1   1   1   1   1
   1   1   1   1   1
   1   1   1   1   1
   1   1   1   1   1
   1   1   1   1   1
   1   1   1   1   1
   1   1   1   1   1
   1   1   1   1   1
   1   1   1   1   1
   1   1   1   1   1
   1   1   1   1   1
   1   1   1   1   1
   1   1   1   1   1
   1   1   1   1   1
   1   1   1
        13         1              (5I4)         -1 # IBOUND Array for Layer 4
   1   1   1   1   1
   1   1   1   1   1
   1   1   1   1   1
   1   1   1   1   1
   1   1   1   1   1
   1   1   1   1   1
   1   1   1   1   1
   1   1   1   1   1
   1   1   1   1   1
   1   1   1   1   1
   1   1   1   1   1
   1   1   1   1   1
   1   1   1   1   1
   1   1   1   1   1
   1   1   1   1   1
   1   1   1   1   1
   1   1   1   1   1
   1   1   1   1   1
   1   1   1   1   1
   1   1   1   1   1
   1   1   1   1   1
   1   1   1   1   1
   1   1   1
        13         1              (5I4)         -1 # IBOUND Array for Layer 5
   1   1   1   1   1
   1   1   1   1   1
   1   1   1   1   1
   1   1   1   1   1
   1   1   1   1   1
   1   1   1   1   1
   1   1   1   1   1
   1   1   1   1   1
   1   1   1   1   1
   1   1   1   1   1
   1   1   1   1   1
   1   1   1   1   1
   1   1   1   1   1
   1   1   1   1   1
   1   1   1   1   1
   1   1   1   1   1
   1   1   1   1   1
   1   1   1   1   1
   1   1   1   1   1
   1   1   1   1   1
   1   1   1   1   1
   1   1   1   1   1
   1   1   1
        13         1              (5I4)         -1 # IBOUND Array for Layer 6
   1   1   1   1   1
   1   1   1   1   1
   1   1   1   1   1
   1   1   1   1   1
   1   1   1   1   1
   1   1   1   1   1
   1   1   1   1   1
   1   1   1   1   1
   1   1   1   1   1
   1   1   1   1   1
   1   1   1   1   1
   1   1   1   1   1
   1   1   1   1   1
   1   1   1   1   1
   1   1   1   1   1
   1   1   1   1   1
   1   1   1   1   1
   1   1   1   1   1
   1   1   1   1   1
   1   1   1   1   1
   1   1   1   1   1
   1   1   1   1   1
   1   1   1
-999.990000
        13         1           (5G13.0)         -1 # Starting Heads in Layer 1
            0            0            0            0            0
            0            0            0            0            0
            0            0            0            0            0
            0            0            0            0            0
            0            0            0            0            0
            0            0            0            0            0
            0            0            0            0            0
            0            0            0            0            0
            0            0            0            0            0
            0            0            0            0            0
            0            0            0            0            0
            0            0            0            0            0
            0            0            0            0            0
            0            0            0            0            0
            0            0            0            0            0
            0            0            0            0            0
            0            0            0            0            0
            0            0            0            0            0
            0            0            0            0            0
            0            0            0            0            0
            0            0            0            0            0
            0            0            0            0            0
            0            0            0
        13         1           (5G13.0)         -1 # Starting Heads in Layer 2
            0            0            0            0            0
            0            0            0            0            0
            0            0            0            0            0
            0            0            0            0            0
            0            0            0            0            0
            0            0            0            0            0
            0            0            0            0            0
            0            0            0            0            0
            0            0            0            0            0
            0            0            0            0            0
            0            0            0            0            0
            0            0            0            0            0
            0            0            0            0            0
            0            0            0            0            0
            0            0            0            0            0
            0            0            0            0            0
            0            0            0            0            0
            0            0            0            0            0
            0            0            0            0            0
            0            0            0            0            0
            0            0            0            0            0
            0            0            0            0            0
            0            0            0
        13         1           (5G13.0)         -1 # Starting Heads in Layer 3
            0            0            0            0            0
            0            0            0            0            0
            0            0            0            0            0
            0            0            0            0            0
            0            0            0            0            0
            0            0            0            0            0
            0            0            0            0            0
            0            0            0            0            0
            0            0            0            0            0
            0            0            0            0            0
            0            0            0            0            0
            0            0            0            0            0
            0            0            0            0            0
            0            0            0            0            0
            0            0            0            0            0
            0            0            0            0            0
            0            0            0            0            0
            0            0            0            0            0
            0            0            0            0            0
            0            0            0            0            0
            0            0            0            0            0
            0            0            0            0            0
            0            0            0
        13         1           (5G13.0)         -1 # Starting Heads in Layer 4
            0            0            0            0            0
            0            0            0            0            0
            0            0            0            0            0
            0            0            0            0            0
            0            0            0            0            0
            0            0            0            0            0
            0            0            0            0            0
            0            0            0            0            0
            0            0            0            0            0
            0            0            0            0            0
            0            0            0            0            0
            0            0            0            0            0
            0            0            0            0            0
            0            0            0            0            0
            0            0            0            0            0
            0            0            0            0            0
            0            0            0            0            0
            0            0            0            0            0
            0            0            0            0            0
            0            0            0            0            0
            0            0            0            0            0
            0            0            0            0            0
            0            0            0
        13         1           (5G13.0)         -1 # Starting Heads in Layer 5
            0            0            0            0            0
            0            0            0            0            0
            0            0            0            0            0
            0            0            0            0            0
            0            0            0            0            0
            0            0            0            0            0
            0            0            0            0            0
            0            0            0            0            0
            0            0            0            0            0
            0            0            0            0            0
            0            0            0            0            0
            0            0            0            0            0
            0            0            0            0            0
            0            0            0            0            0
            0            0            0            0            0
            0            0            0            0            0
            0            0            0            0            0
            0            0            0            0            0
            0            0            0            0            0
            0            0            0            0            0
            0            0            0            0            0
            0            0            0            0            0
            0            0            0
        13         1           (5G13.0)         -1 # Starting Heads in Layer 6
            0            0            0            0            0
            0            0            0            0            0
            0            0            0            0            0
            0            0            0            0            0
            0            0            0            0            0
            0            0            0            0            0
            0            0            0            0            0
            0            0            0            0            0
            0            0            0            0            0
            0            0            0            0            0
            0            0            0            0            0
            0            0            0            0            0
            0            0            0            0            0
            0            0            0            0            0
            0            0            0            0            0
            0            0            0            0            0
            0            0            0            0            0
            0            0            0            0            0
            0            0            0            0            0
            0            0            0            0            0
            0            0            0            0            0
            0            0            0            0            0
            0            0            0
